(set-logic BV) (define-fun origCir ((n207 Bool) (n254 Bool) (n325 Bool) (n221 Bool)) Bool (and (xor n325 (not (and n254 n207))) n221)) (synth-fun skel ((n207 Bool) (n254 Bool) (n325 Bool) (n221 Bool)) Bool) (declare-var n207 Bool) (declare-var n254 Bool) (declare-var n325 Bool) (declare-var n221 Bool) (constraint (= (origCir n207 n254 n325 n221) (skel n207 n254 n325 n221))) (check-synth)
